SrTiO3 [exp lattice by Yamanaka2002]
1.0
       23.4202232361         0.0000000000         0.0000000000
        0.0000000000        15.6134824753         0.0000000000
        0.0000000000         0.0000000000        43.4202232361
   Nb   Ti   Sr   O
   8    112  120  360
Selective dynamics
Cartesian
1.9516853280	9.7584265470	22.3453296330	T T T
13.6617964220	5.8550559280	22.3453296330	T T T
5.8550558090	1.9516853090	18.3031470460	T T T
21.4685384320	13.6617971660	18.3031470460	T T T
9.7584261160	9.7584265470	18.3031470460	T T T
21.4685384320	1.9516853090	22.3453296330	T T T
5.8550558090	13.6617971660	22.3453296330	T T T
17.5651674270	13.6617971660	18.3031470460	T T T
1.9516853280	1.9516853090	22.3453296330	T T T
9.7584261160	1.9516853090	22.3453296330	T T T
9.7584261160	9.7584265470	22.3453296330	T T T
17.5651674270	1.9516853090	22.3453296330	T T T
17.5651674270	9.7584265470	22.3453296330	T T T
5.8550558090	1.9516853090	22.3453296330	T T T
5.8550558090	9.7584265470	22.3453296330	T T T
13.6617964220	1.9516853090	22.3453296330	T T T
13.6617964220	9.7584265470	22.3453296330	T T T
21.4685384320	9.7584265470	22.3453296330	T T T
1.9516853280	5.8550559280	22.3453296330	T T T
1.9516853280	13.6617971660	22.3453296330	T T T
9.7584261160	5.8550559280	22.3453296330	T T T
9.7584261160	13.6617971660	22.3453296330	T T T
17.5651674270	5.8550559280	22.3453296330	T T T
17.5651674270	13.6617971660	22.3453296330	T T T
5.8550558090	5.8550559280	22.3453296330	T T T
13.6617964220	13.6617971660	22.3453296330	T T T
21.4685384320	5.8550559280	22.3453296330	T T T
21.4685384320	13.6617971660	22.3453296330	T T T
1.9516853280	1.9516853090	18.3031470460	T T T
1.9516853280	9.7584265470	18.3031470460	T T T
9.7584261160	1.9516853090	18.3031470460	T T T
17.5651674270	1.9516853090	18.3031470460	T T T
17.5651674270	9.7584265470	18.3031470460	T T T
5.8550558090	9.7584265470	18.3031470460	T T T
13.6617964220	1.9516853090	18.3031470460	T T T
13.6617964220	9.7584265470	18.3031470460	T T T
21.4685384320	1.9516853090	18.3031470460	T T T
21.4685384320	9.7584265470	18.3031470460	T T T
1.9516853280	5.8550559280	18.3031470460	T T T
1.9516853280	13.6617971660	18.3031470460	T T T
9.7584261160	5.8550559280	18.3031470460	T T T
9.7584261160	13.6617971660	18.3031470460	T T T
17.5651674270	5.8550559280	18.3031470460	T T T
5.8550558090	5.8550559280	18.3031470460	T T T
5.8550558090	13.6617971660	18.3031470460	T T T
13.6617964220	5.8550559280	18.3031470460	T T T
13.6617964220	13.6617971660	18.3031470460	T T T
21.4685384320	5.8550559280	18.3031470460	T T T
1.9516853280	1.9516853090	14.2509965950	T T T
1.9516853280	9.7584265470	14.2509965950	T T T
9.7584261160	1.9516853090	14.2509965950	T T T
9.7584261160	9.7584265470	14.2509965950	T T T
17.5651674270	1.9516853090	14.2509965950	T T T
17.5651674270	9.7584265470	14.2509965950	T T T
5.8550558090	1.9516853090	14.2509965950	T T T
5.8550558090	9.7584265470	14.2509965950	T T T
13.6617964220	1.9516853090	14.2509965950	T T T
13.6617964220	9.7584265470	14.2509965950	T T T
21.4685384320	1.9516853090	14.2509965950	T T T
21.4685384320	9.7584265470	14.2509965950	T T T
1.9516853280	5.8550559280	14.2509965950	T T T
1.9516853280	13.6617971660	14.2509965950	T T T
9.7584261160	5.8550559280	14.2509965950	T T T
9.7584261160	13.6617971660	14.2509965950	T T T
17.5651674270	5.8550559280	14.2509965950	T T T
17.5651674270	13.6617971660	14.2509965950	T T T
5.8550558090	5.8550559280	14.2509965950	T T T
5.8550558090	13.6617971660	14.2509965950	T T T
13.6617964220	5.8550559280	14.2509965950	T T T
13.6617964220	13.6617971660	14.2509965950	T T T
21.4685384320	5.8550559280	14.2509965950	T T T
21.4685384320	13.6617971660	14.2509965950	T T T
1.9516853280	1.9516853090	10.1970785080	F F F
1.9516853280	9.7584265470	10.1970785080	F F F
9.7584261160	1.9516853090	10.1970785080	F F F
9.7584261160	9.7584265470	10.1970785080	F F F
17.5651674270	1.9516853090	10.1970785080	F F F
17.5651674270	9.7584265470	10.1970785080	F F F
5.8550558090	1.9516853090	10.1970785080	F F F
5.8550558090	9.7584265470	10.1970785080	F F F
13.6617964220	1.9516853090	10.1970785080	F F F
13.6617964220	9.7584265470	10.1970785080	F F F
21.4685384320	1.9516853090	10.1970785080	F F F
21.4685384320	9.7584265470	10.1970785080	F F F
1.9516853280	5.8550559280	10.1970785080	F F F
1.9516853280	13.6617971660	10.1970785080	F F F
9.7584261160	5.8550559280	10.1970785080	F F F
9.7584261160	13.6617971660	10.1970785080	F F F
17.5651674270	5.8550559280	10.1970785080	F F F
17.5651674270	13.6617971660	10.1970785080	F F F
5.8550558090	5.8550559280	10.1970785080	F F F
5.8550558090	13.6617971660	10.1970785080	F F F
13.6617964220	5.8550559280	10.1970785080	F F F
13.6617964220	13.6617971660	10.1970785080	F F F
21.4685384320	5.8550559280	10.1970785080	F F F
21.4685384320	13.6617971660	10.1970785080	F F F
1.9516853280	1.9516853090	6.2937077620	F F F
1.9516853280	9.7584265470	6.2937077620	F F F
9.7584261160	1.9516853090	6.2937077620	F F F
9.7584261160	9.7584265470	6.2937077620	F F F
17.5651674270	1.9516853090	6.2937077620	F F F
17.5651674270	9.7584265470	6.2937077620	F F F
5.8550558090	1.9516853090	6.2937077620	F F F
5.8550558090	9.7584265470	6.2937077620	F F F
13.6617964220	1.9516853090	6.2937077620	F F F
13.6617964220	9.7584265470	6.2937077620	F F F
21.4685384320	1.9516853090	6.2937077620	F F F
21.4685384320	9.7584265470	6.2937077620	F F F
1.9516853280	5.8550559280	6.2937077620	F F F
1.9516853280	13.6617971660	6.2937077620	F F F
9.7584261160	5.8550559280	6.2937077620	F F F
9.7584261160	13.6617971660	6.2937077620	F F F
17.5651674270	5.8550559280	6.2937077620	F F F
17.5651674270	13.6617971660	6.2937077620	F F F
5.8550558090	5.8550559280	6.2937077620	F F F
5.8550558090	13.6617971660	6.2937077620	F F F
13.6617964220	5.8550559280	6.2937077620	F F F
13.6617964220	13.6617971660	6.2937077620	F F F
21.4685384320	5.8550559280	6.2937077620	F F F
21.4685384320	13.6617971660	6.2937077620	F F F
0.0000000000	3.9033706190	20.3435335240	T T T
0.0000000000	11.7101118560	20.3435335240	T T T
7.8067413110	3.9033706190	20.3435335240	T T T
7.8067413110	11.7101118560	20.3435335240	T T T
15.6134826230	3.9033706190	20.3435335240	T T T
15.6134826230	11.7101118560	20.3435335240	T T T
3.9033706560	3.9033706190	20.3435335240	T T T
3.9033706560	11.7101118560	20.3435335240	T T T
11.7101116180	3.9033706190	20.3435335240	T T T
11.7101116180	11.7101118560	20.3435335240	T T T
19.5168522310	3.9033706190	20.3435335240	T T T
19.5168522310	11.7101118560	20.3435335240	T T T
0.0000000000	7.8067412380	20.3435335240	T T T
0.0000000000	0.0000000000	20.3435335240	T T T
7.8067413110	7.8067412380	20.3435335240	T T T
7.8067413110	0.0000000000	20.3435335240	T T T
15.6134826230	7.8067412380	20.3435335240	T T T
15.6134826230	0.0000000000	20.3435335240	T T T
3.9033706560	7.8067412380	20.3435335240	T T T
3.9033706560	0.0000000000	20.3435335240	T T T
11.7101116180	7.8067412380	20.3435335240	T T T
11.7101116180	0.0000000000	20.3435335240	T T T
19.5168522310	7.8067412380	20.3435335240	T T T
19.5168522310	0.0000000000	20.3435335240	T T T
0.0000000000	3.9033706190	16.2803683450	T T T
0.0000000000	11.7101118560	16.2803683450	T T T
7.8067413110	3.9033706190	16.2803683450	T T T
7.8067413110	11.7101118560	16.2803683450	T T T
15.6134826230	3.9033706190	16.2803683450	T T T
15.6134826230	11.7101118560	16.2803683450	T T T
3.9033706560	3.9033706190	16.2803683450	T T T
3.9033706560	11.7101118560	16.2803683450	T T T
11.7101116180	3.9033706190	16.2803683450	T T T
11.7101116180	11.7101118560	16.2803683450	T T T
19.5168522310	3.9033706190	16.2803683450	T T T
19.5168522310	11.7101118560	16.2803683450	T T T
0.0000000000	7.8067412380	16.2803683450	T T T
0.0000000000	0.0000000000	16.2803683450	T T T
7.8067413110	7.8067412380	16.2803683450	T T T
7.8067413110	0.0000000000	16.2803683450	T T T
15.6134826230	7.8067412380	16.2803683450	T T T
15.6134826230	0.0000000000	16.2803683450	T T T
3.9033706560	7.8067412380	16.2803683450	T T T
3.9033706560	0.0000000000	16.2803683450	T T T
11.7101116180	7.8067412380	16.2803683450	T T T
11.7101116180	0.0000000000	16.2803683450	T T T
19.5168522310	7.8067412380	16.2803683450	T T T
19.5168522310	0.0000000000	16.2803683450	T T T
0.0000000000	3.9033706190	12.2269070490	T T T
0.0000000000	11.7101118560	12.2269070490	T T T
7.8067413110	3.9033706190	12.2269070490	T T T
7.8067413110	11.7101118560	12.2269070490	T T T
15.6134826230	3.9033706190	12.2269070490	T T T
15.6134826230	11.7101118560	12.2269070490	T T T
3.9033706560	3.9033706190	12.2269070490	T T T
3.9033706560	11.7101118560	12.2269070490	T T T
11.7101116180	3.9033706190	12.2269070490	T T T
11.7101116180	11.7101118560	12.2269070490	T T T
19.5168522310	3.9033706190	12.2269070490	T T T
19.5168522310	11.7101118560	12.2269070490	T T T
0.0000000000	7.8067412380	12.2269070490	T T T
0.0000000000	0.0000000000	12.2269070490	T T T
7.8067413110	7.8067412380	12.2269070490	T T T
7.8067413110	0.0000000000	12.2269070490	T T T
15.6134826230	7.8067412380	12.2269070490	T T T
15.6134826230	0.0000000000	12.2269070490	T T T
3.9033706560	7.8067412380	12.2269070490	T T T
3.9033706560	0.0000000000	12.2269070490	T T T
11.7101116180	7.8067412380	12.2269070490	T T T
11.7101116180	0.0000000000	12.2269070490	T T T
19.5168522310	7.8067412380	12.2269070490	T T T
19.5168522310	0.0000000000	12.2269070490	T T T
0.0000000000	3.9033706190	8.2453928120	F F F
0.0000000000	11.7101118560	8.2453928120	F F F
7.8067413110	3.9033706190	8.2453928120	F F F
7.8067413110	11.7101118560	8.2453928120	F F F
15.6134826230	3.9033706190	8.2453928120	F F F
15.6134826230	11.7101118560	8.2453928120	F F F
3.9033706560	3.9033706190	8.2453928120	F F F
3.9033706560	11.7101118560	8.2453928120	F F F
11.7101116180	3.9033706190	8.2453928120	F F F
11.7101116180	11.7101118560	8.2453928120	F F F
19.5168522310	3.9033706190	8.2453928120	F F F
19.5168522310	11.7101118560	8.2453928120	F F F
0.0000000000	7.8067412380	8.2453928120	F F F
0.0000000000	0.0000000000	8.2453928120	F F F
7.8067413110	7.8067412380	8.2453928120	F F F
7.8067413110	0.0000000000	8.2453928120	F F F
15.6134826230	7.8067412380	8.2453928120	F F F
15.6134826230	0.0000000000	8.2453928120	F F F
3.9033706560	7.8067412380	8.2453928120	F F F
3.9033706560	0.0000000000	8.2453928120	F F F
11.7101116180	7.8067412380	8.2453928120	F F F
11.7101116180	0.0000000000	8.2453928120	F F F
19.5168522310	7.8067412380	8.2453928120	F F F
19.5168522310	0.0000000000	8.2453928120	F F F
0.0000000000	3.9033706190	4.3420223880	F F F
0.0000000000	11.7101118560	4.3420223880	F F F
7.8067413110	3.9033706190	4.3420223880	F F F
7.8067413110	11.7101118560	4.3420223880	F F F
15.6134826230	3.9033706190	4.3420223880	F F F
15.6134826230	11.7101118560	4.3420223880	F F F
3.9033706560	3.9033706190	4.3420223880	F F F
3.9033706560	11.7101118560	4.3420223880	F F F
11.7101116180	3.9033706190	4.3420223880	F F F
11.7101116180	11.7101118560	4.3420223880	F F F
19.5168522310	3.9033706190	4.3420223880	F F F
19.5168522310	11.7101118560	4.3420223880	F F F
0.0000000000	7.8067412380	4.3420223880	F F F
0.0000000000	0.0000000000	4.3420223880	F F F
7.8067413110	7.8067412380	4.3420223880	F F F
7.8067413110	0.0000000000	4.3420223880	F F F
15.6134826230	7.8067412380	4.3420223880	F F F
15.6134826230	0.0000000000	4.3420223880	F F F
3.9033706560	7.8067412380	4.3420223880	F F F
3.9033706560	0.0000000000	4.3420223880	F F F
11.7101116180	7.8067412380	4.3420223880	F F F
11.7101116180	0.0000000000	4.3420223880	F F F
19.5168522310	7.8067412380	4.3420223880	F F F
19.5168522310	0.0000000000	4.3420223880	F F F
1.6160852270	3.9033706190	22.3687876910	T T T
1.6160852270	11.7101118560	22.3687876910	T T T
9.4228261900	3.9033706190	22.3687876910	T T T
9.4228261900	11.7101118560	22.3687876910	T T T
17.2295675010	3.9033706190	22.3687876910	T T T
17.2295675010	11.7101118560	22.3687876910	T T T
2.2872775760	7.8067412380	22.3687876910	T T T
2.2872775760	0.0000000000	22.3687876910	T T T
10.0940183640	7.8067412380	22.3687876910	T T T
10.0940183640	0.0000000000	22.3687876910	T T T
17.9007603730	7.8067412380	22.3687876910	T T T
17.9007603730	0.0000000000	22.3687876910	T T T
3.9033664680	2.2872815200	22.3687876910	T T T
3.9033664680	10.0940232230	22.3687876910	T T T
11.7101074300	2.2872815200	22.3687876910	T T T
11.7101074300	10.0940232230	22.3687876910	T T T
19.5168480440	2.2872815200	22.3687876910	T T T
19.5168480440	10.0940232230	22.3687876910	T T T
3.9033664680	5.5194597180	22.3687876910	T T T
3.9033664680	13.3262004900	22.3687876910	T T T
11.7101074300	5.5194597180	22.3687876910	T T T
11.7101074300	13.3262004900	22.3687876910	T T T
19.5168480440	5.5194597180	22.3687876910	T T T
19.5168480440	13.3262004900	22.3687876910	T T T
5.5194558830	7.8067412380	22.3687876910	T T T
5.5194558830	0.0000000000	22.3687876910	T T T
13.3261964960	7.8067412380	22.3687876910	T T T
13.3261964960	0.0000000000	22.3687876910	T T T
21.1329385060	7.8067412380	22.3687876910	T T T
21.1329385060	0.0000000000	22.3687876910	T T T
6.1906480570	3.9033706190	22.3687876910	T T T
6.1906480570	11.7101118560	22.3687876910	T T T
13.9973893690	3.9033706190	22.3687876910	T T T
13.9973893690	11.7101118560	22.3687876910	T T T
21.8041299820	3.9033706190	22.3687876910	T T T
21.8041299820	11.7101118560	22.3687876910	T T T
7.8067371230	1.6160892150	22.3687876910	T T T
7.8067371230	9.4228308020	22.3687876910	T T T
15.6134784350	1.6160892150	22.3687876910	T T T
15.6134784350	9.4228308020	22.3687876910	T T T
23.4202190480	1.6160892150	22.3687876910	T T T
23.4202190480	9.4228308020	22.3687876910	T T T
7.8067371230	6.1906521390	22.3687876910	T T T
7.8067371230	13.9973938410	22.3687876910	T T T
15.6134784350	6.1906521390	22.3687876910	T T T
15.6134784350	13.9973938410	22.3687876910	T T T
23.4202190480	6.1906521390	22.3687876910	T T T
23.4202190480	13.9973938410	22.3687876910	T T T
1.9516853280	1.9516853090	20.3369598850	T T T
1.9516853280	9.7584265470	20.3369598850	T T T
9.7584261160	1.9516853090	20.3369598850	T T T
9.7584261160	9.7584265470	20.3369598850	T T T
17.5651674270	1.9516853090	20.3369598850	T T T
17.5651674270	9.7584265470	20.3369598850	T T T
1.9516853280	5.8550559280	20.3369598850	T T T
1.9516853280	13.6617971660	20.3369598850	T T T
9.7584261160	5.8550559280	20.3369598850	T T T
9.7584261160	13.6617971660	20.3369598850	T T T
17.5651674270	5.8550559280	20.3369598850	T T T
17.5651674270	13.6617971660	20.3369598850	T T T
5.8550558090	1.9516853090	20.3369598850	T T T
5.8550558090	9.7584265470	20.3369598850	T T T
13.6617964220	1.9516853090	20.3369598850	T T T
13.6617964220	9.7584265470	20.3369598850	T T T
21.4685384320	1.9516853090	20.3369598850	T T T
21.4685384320	9.7584265470	20.3369598850	T T T
5.8550558090	5.8550559280	20.3369598850	T T T
5.8550558090	13.6617971660	20.3369598850	T T T
13.6617964220	5.8550559280	20.3369598850	T T T
13.6617964220	13.6617971660	20.3369598850	T T T
21.4685384320	5.8550559280	20.3369598850	T T T
21.4685384320	13.6617971660	20.3369598850	T T T
1.6315387880	7.8067412380	18.3111674030	T T T
1.6315387880	0.0000000000	18.3111674030	T T T
9.4382800990	7.8067412380	18.3111674030	T T T
9.4382800990	0.0000000000	18.3111674030	T T T
17.2450207130	7.8067412380	18.3111674030	T T T
17.2450207130	0.0000000000	18.3111674030	T T T
2.2718238410	3.9033706190	18.3111674030	T T T
2.2718238410	11.7101118560	18.3111674030	T T T
10.0785651520	3.9033706190	18.3111674030	T T T
10.0785651520	11.7101118560	18.3111674030	T T T
17.8853057660	3.9033706190	18.3111674030	T T T
17.8853057660	11.7101118560	18.3111674030	T T T
3.9033664680	1.6315426600	18.3111674030	T T T
3.9033664680	9.4382840140	18.3111674030	T T T
11.7101074300	1.6315426600	18.3111674030	T T T
11.7101074300	9.4382840140	18.3111674030	T T T
19.5168480440	1.6315426600	18.3111674030	T T T
19.5168480440	9.4382840140	18.3111674030	T T T
3.9033664680	6.1751984610	18.3111674030	T T T
3.9033664680	13.9819396990	18.3111674030	T T T
11.7101074300	6.1751984610	18.3111674030	T T T
11.7101074300	13.9819396990	18.3111674030	T T T
19.5168480440	6.1751984610	18.3111674030	T T T
19.5168480440	13.9819396990	18.3111674030	T T T
5.5349090950	3.9033706190	18.3111674030	T T T
5.5349090950	11.7101118560	18.3111674030	T T T
13.3416497080	3.9033706190	18.3111674030	T T T
13.3416497080	11.7101118560	18.3111674030	T T T
21.1483917170	3.9033706190	18.3111674030	T T T
21.1483917170	11.7101118560	18.3111674030	T T T
6.1751948460	7.8067412380	18.3111674030	T T T
6.1751948460	0.0000000000	18.3111674030	T T T
13.9819361570	7.8067412380	18.3111674030	T T T
13.9819361570	0.0000000000	18.3111674030	T T T
21.7886767700	7.8067412380	18.3111674030	T T T
21.7886767700	0.0000000000	18.3111674030	T T T
7.8067371230	2.2718278420	18.3111674030	T T T
7.8067371230	10.0785690800	18.3111674030	T T T
15.6134784350	2.2718278420	18.3111674030	T T T
15.6134784350	10.0785690800	18.3111674030	T T T
23.4202190480	2.2718278420	18.3111674030	T T T
23.4202190480	10.0785690800	18.3111674030	T T T
7.8067371230	5.5349133950	18.3111674030	T T T
7.8067371230	13.3416546330	18.3111674030	T T T
15.6134784350	5.5349133950	18.3111674030	T T T
15.6134784350	13.3416546330	18.3111674030	T T T
23.4202190480	5.5349133950	18.3111674030	T T T
23.4202190480	13.3416546330	18.3111674030	T T T
1.9516853280	1.9516853090	16.2840291380	T T T
1.9516853280	9.7584265470	16.2840291380	T T T
9.7584261160	1.9516853090	16.2840291380	T T T
9.7584261160	9.7584265470	16.2840291380	T T T
17.5651674270	1.9516853090	16.2840291380	T T T
17.5651674270	9.7584265470	16.2840291380	T T T
1.9516853280	5.8550559280	16.2840291380	T T T
1.9516853280	13.6617971660	16.2840291380	T T T
9.7584261160	5.8550559280	16.2840291380	T T T
9.7584261160	13.6617971660	16.2840291380	T T T
17.5651674270	5.8550559280	16.2840291380	T T T
17.5651674270	13.6617971660	16.2840291380	T T T
5.8550558090	1.9516853090	16.2840291380	T T T
5.8550558090	9.7584265470	16.2840291380	T T T
13.6617964220	1.9516853090	16.2840291380	T T T
13.6617964220	9.7584265470	16.2840291380	T T T
21.4685384320	1.9516853090	16.2840291380	T T T
21.4685384320	9.7584265470	16.2840291380	T T T
5.8550558090	5.8550559280	16.2840291380	T T T
5.8550558090	13.6617971660	16.2840291380	T T T
13.6617964220	5.8550559280	16.2840291380	T T T
13.6617964220	13.6617971660	16.2840291380	T T T
21.4685384320	5.8550559280	16.2840291380	T T T
21.4685384320	13.6617971660	16.2840291380	T T T
1.6283795690	3.9033706190	14.2560614030	T T T
1.6283795690	11.7101118560	14.2560614030	T T T
9.4351203570	3.9033706190	14.2560614030	T T T
9.4351203570	11.7101118560	14.2560614030	T T T
17.2418616690	3.9033706190	14.2560614030	T T T
17.2418616690	11.7101118560	14.2560614030	T T T
2.2749830590	7.8067412380	14.2560614030	T T T
2.2749830590	0.0000000000	14.2560614030	T T T
10.0817241960	7.8067412380	14.2560614030	T T T
10.0817241960	0.0000000000	14.2560614030	T T T
17.8884648100	7.8067412380	14.2560614030	T T T
17.8884648100	0.0000000000	14.2560614030	T T T
3.9033664680	2.2749871190	14.2560614030	T T T
3.9033664680	10.0817285890	14.2560614030	T T T
11.7101074300	2.2749871190	14.2560614030	T T T
11.7101074300	10.0817285890	14.2560614030	T T T
19.5168480440	2.2749871190	14.2560614030	T T T
19.5168480440	10.0817285890	14.2560614030	T T T
3.9033664680	5.5317538860	14.2560614030	T T T
3.9033664680	13.3384951230	14.2560614030	T T T
11.7101074300	5.5317538860	14.2560614030	T T T
11.7101074300	13.3384951230	14.2560614030	T T T
19.5168480440	5.5317538860	14.2560614030	T T T
19.5168480440	13.3384951230	14.2560614030	T T T
5.5317500510	7.8067412380	14.2560614030	T T T
5.5317500510	0.0000000000	14.2560614030	T T T
13.3384906640	7.8067412380	14.2560614030	T T T
13.3384906640	0.0000000000	14.2560614030	T T T
21.1452326730	7.8067412380	14.2560614030	T T T
21.1452326730	0.0000000000	14.2560614030	T T T
6.1783538900	3.9033706190	14.2560614030	T T T
6.1783538900	11.7101118560	14.2560614030	T T T
13.9850952010	3.9033706190	14.2560614030	T T T
13.9850952010	11.7101118560	14.2560614030	T T T
21.7918358140	3.9033706190	14.2560614030	T T T
21.7918358140	11.7101118560	14.2560614030	T T T
7.8067371230	1.6283835000	14.2560614030	T T T
7.8067371230	9.4351245050	14.2560614030	T T T
15.6134784350	1.6283835000	14.2560614030	T T T
15.6134784350	9.4351245050	14.2560614030	T T T
23.4202190480	1.6283835000	14.2560614030	T T T
23.4202190480	9.4351245050	14.2560614030	T T T
7.8067371230	6.1783579710	14.2560614030	T T T
7.8067371230	13.9850992080	14.2560614030	T T T
15.6134784350	6.1783579710	14.2560614030	T T T
15.6134784350	13.9850992080	14.2560614030	T T T
23.4202190480	6.1783579710	14.2560614030	T T T
23.4202190480	13.9850992080	14.2560614030	T T T
1.9516853280	1.9516853090	12.2341807550	T T T
1.9516853280	9.7584265470	12.2341807550	T T T
9.7584261160	1.9516853090	12.2341807550	T T T
9.7584261160	9.7584265470	12.2341807550	T T T
17.5651674270	1.9516853090	12.2341807550	T T T
17.5651674270	9.7584265470	12.2341807550	T T T
1.9516853280	5.8550559280	12.2341807550	T T T
1.9516853280	13.6617971660	12.2341807550	T T T
9.7584261160	5.8550559280	12.2341807550	T T T
9.7584261160	13.6617971660	12.2341807550	T T T
17.5651674270	5.8550559280	12.2341807550	T T T
17.5651674270	13.6617971660	12.2341807550	T T T
5.8550558090	1.9516853090	12.2341807550	T T T
5.8550558090	9.7584265470	12.2341807550	T T T
13.6617964220	1.9516853090	12.2341807550	T T T
13.6617964220	9.7584265470	12.2341807550	T T T
21.4685384320	1.9516853090	12.2341807550	T T T
21.4685384320	9.7584265470	12.2341807550	T T T
5.8550558090	5.8550559280	12.2341807550	T T T
5.8550558090	13.6617971660	12.2341807550	T T T
13.6617964220	5.8550559280	12.2341807550	T T T
13.6617964220	13.6617971660	12.2341807550	T T T
21.4685384320	5.8550559280	12.2341807550	T T T
21.4685384320	13.6617971660	12.2341807550	T T T
1.6708232040	7.8067412380	10.1970785080	F F F
1.6708232040	0.0000000000	10.1970785080	F F F
9.4775643410	7.8067412380	10.1970785080	F F F
9.4775643410	0.0000000000	10.1970785080	F F F
17.2843056530	7.8067412380	10.1970785080	F F F
17.2843056530	0.0000000000	10.1970785080	F F F
2.2325395990	3.9033706190	10.1970785080	F F F
2.2325395990	11.7101118560	10.1970785080	F F F
10.0392809100	3.9033706190	10.1970785080	F F F
10.0392809100	11.7101118560	10.1970785080	F F F
17.8460222220	3.9033706190	10.1970785080	F F F
17.8460222220	11.7101118560	10.1970785080	F F F
3.9033664680	1.6708271360	10.1970785080	F F F
3.9033664680	9.4775680240	10.1970785080	F F F
11.7101074300	1.6708271360	10.1970785080	F F F
11.7101074300	9.4775680240	10.1970785080	F F F
19.5168480440	1.6708271360	10.1970785080	F F F
19.5168480440	9.4775680240	10.1970785080	F F F
3.9033664680	6.1359139860	10.1970785080	F F F
3.9033664680	13.9426556890	10.1970785080	F F F
11.7101074300	6.1359139860	10.1970785080	F F F
11.7101074300	13.9426556890	10.1970785080	F F F
19.5168480440	6.1359139860	10.1970785080	F F F
19.5168480440	13.9426556890	10.1970785080	F F F
5.5741936860	3.9033706190	10.1970785080	F F F
5.5741936860	11.7101118560	10.1970785080	F F F
13.3809346480	3.9033706190	10.1970785080	F F F
13.3809346480	11.7101118560	10.1970785080	F F F
21.1876752610	3.9033706190	10.1970785080	F F F
21.1876752610	11.7101118560	10.1970785080	F F F
6.1359099060	7.8067412380	10.1970785080	F F F
6.1359099060	0.0000000000	10.1970785080	F F F
13.9426512170	7.8067412380	10.1970785080	F F F
13.9426512170	0.0000000000	10.1970785080	F F F
21.7493918300	7.8067412380	10.1970785080	F F F
21.7493918300	0.0000000000	10.1970785080	F F F
7.8067371230	2.2325433670	10.1970785080	F F F
7.8067371230	10.0392850700	10.1970785080	F F F
15.6134784350	2.2325433670	10.1970785080	F F F
15.6134784350	10.0392850700	10.1970785080	F F F
23.4202190480	2.2325433670	10.1970785080	F F F
23.4202190480	10.0392850700	10.1970785080	F F F
7.8067371230	5.5741978710	10.1970785080	F F F
7.8067371230	13.3809386430	10.1970785080	F F F
15.6134784350	5.5741978710	10.1970785080	F F F
15.6134784350	13.3809386430	10.1970785080	F F F
23.4202190480	5.5741978710	10.1970785080	F F F
23.4202190480	13.3809386430	10.1970785080	F F F
1.9516853280	1.9516853090	8.2453928120	F F F
1.9516853280	9.7584265470	8.2453928120	F F F
9.7584261160	1.9516853090	8.2453928120	F F F
9.7584261160	9.7584265470	8.2453928120	F F F
17.5651674270	1.9516853090	8.2453928120	F F F
17.5651674270	9.7584265470	8.2453928120	F F F
1.9516853280	5.8550559280	8.2453928120	F F F
1.9516853280	13.6617971660	8.2453928120	F F F
9.7584261160	5.8550559280	8.2453928120	F F F
9.7584261160	13.6617971660	8.2453928120	F F F
17.5651674270	5.8550559280	8.2453928120	F F F
17.5651674270	13.6617971660	8.2453928120	F F F
5.8550558090	1.9516853090	8.2453928120	F F F
5.8550558090	9.7584265470	8.2453928120	F F F
13.6617964220	1.9516853090	8.2453928120	F F F
13.6617964220	9.7584265470	8.2453928120	F F F
21.4685384320	1.9516853090	8.2453928120	F F F
21.4685384320	9.7584265470	8.2453928120	F F F
5.8550558090	5.8550559280	8.2453928120	F F F
5.8550558090	13.6617971660	8.2453928120	F F F
13.6617964220	5.8550559280	8.2453928120	F F F
13.6617964220	13.6617971660	8.2453928120	F F F
21.4685384320	5.8550559280	8.2453928120	F F F
21.4685384320	13.6617971660	8.2453928120	F F F
1.6708232040	3.9033706190	6.2937077620	F F F
1.6708232040	11.7101118560	6.2937077620	F F F
9.4775643410	3.9033706190	6.2937077620	F F F
9.4775643410	11.7101118560	6.2937077620	F F F
17.2843056530	3.9033706190	6.2937077620	F F F
17.2843056530	11.7101118560	6.2937077620	F F F
2.2325395990	7.8067412380	6.2937077620	F F F
2.2325395990	0.0000000000	6.2937077620	F F F
10.0392809100	7.8067412380	6.2937077620	F F F
10.0392809100	0.0000000000	6.2937077620	F F F
17.8460222220	7.8067412380	6.2937077620	F F F
17.8460222220	0.0000000000	6.2937077620	F F F
3.9033664680	2.2325433670	6.2937077620	F F F
3.9033664680	10.0392850700	6.2937077620	F F F
11.7101074300	2.2325433670	6.2937077620	F F F
11.7101074300	10.0392850700	6.2937077620	F F F
19.5168480440	2.2325433670	6.2937077620	F F F
19.5168480440	10.0392850700	6.2937077620	F F F
3.9033664680	5.5741978710	6.2937077620	F F F
3.9033664680	13.3809386430	6.2937077620	F F F
11.7101074300	5.5741978710	6.2937077620	F F F
11.7101074300	13.3809386430	6.2937077620	F F F
19.5168480440	5.5741978710	6.2937077620	F F F
19.5168480440	13.3809386430	6.2937077620	F F F
5.5741936860	7.8067412380	6.2937077620	F F F
5.5741936860	0.0000000000	6.2937077620	F F F
13.3809346480	7.8067412380	6.2937077620	F F F
13.3809346480	0.0000000000	6.2937077620	F F F
21.1876752610	7.8067412380	6.2937077620	F F F
21.1876752610	0.0000000000	6.2937077620	F F F
6.1359099060	3.9033706190	6.2937077620	F F F
6.1359099060	11.7101118560	6.2937077620	F F F
13.9426512170	3.9033706190	6.2937077620	F F F
13.9426512170	11.7101118560	6.2937077620	F F F
21.7493918300	3.9033706190	6.2937077620	F F F
21.7493918300	11.7101118560	6.2937077620	F F F
7.8067371230	1.6708271360	6.2937077620	F F F
7.8067371230	9.4775680240	6.2937077620	F F F
15.6134784350	1.6708271360	6.2937077620	F F F
15.6134784350	9.4775680240	6.2937077620	F F F
23.4202190480	1.6708271360	6.2937077620	F F F
23.4202190480	9.4775680240	6.2937077620	F F F
7.8067371230	6.1359139860	6.2937077620	F F F
7.8067371230	13.9426556890	6.2937077620	F F F
15.6134784350	6.1359139860	6.2937077620	F F F
15.6134784350	13.9426556890	6.2937077620	F F F
23.4202190480	6.1359139860	6.2937077620	F F F
23.4202190480	13.9426556890	6.2937077620	F F F
1.9516853280	1.9516853090	4.3420223880	F F F
1.9516853280	9.7584265470	4.3420223880	F F F
9.7584261160	1.9516853090	4.3420223880	F F F
9.7584261160	9.7584265470	4.3420223880	F F F
17.5651674270	1.9516853090	4.3420223880	F F F
17.5651674270	9.7584265470	4.3420223880	F F F
1.9516853280	5.8550559280	4.3420223880	F F F
1.9516853280	13.6617971660	4.3420223880	F F F
9.7584261160	5.8550559280	4.3420223880	F F F
9.7584261160	13.6617971660	4.3420223880	F F F
17.5651674270	5.8550559280	4.3420223880	F F F
17.5651674270	13.6617971660	4.3420223880	F F F
5.8550558090	1.9516853090	4.3420223880	F F F
5.8550558090	9.7584265470	4.3420223880	F F F
13.6617964220	1.9516853090	4.3420223880	F F F
13.6617964220	9.7584265470	4.3420223880	F F F
21.4685384320	1.9516853090	4.3420223880	F F F
21.4685384320	9.7584265470	4.3420223880	F F F
5.8550558090	5.8550559280	4.3420223880	F F F
5.8550558090	13.6617971660	4.3420223880	F F F
13.6617964220	5.8550559280	4.3420223880	F F F
13.6617964220	13.6617971660	4.3420223880	F F F
21.4685384320	5.8550559280	4.3420223880	F F F
21.4685384320	13.6617971660	4.3420223880	F F F


